CPXPARAM_MIP_Tolerances_MIPGap                   0
Tried aggregator 1 time.
MIP Presolve eliminated 419 rows and 18 columns.
MIP Presolve modified 2933 coefficients.
Reduced MIP has 5655 rows, 3059 columns, and 16542 nonzeros.
Reduced MIP has 2658 binaries, 0 generals, 0 SOSs, and 0 indicators.
Presolve time = 0.02 sec. (12.40 ticks)
Found incumbent of value 60.000000 after 0.03 sec. (33.87 ticks)
Probing time = 0.02 sec. (4.34 ticks)
Tried aggregator 1 time.
MIP Presolve modified 3 coefficients.
Reduced MIP has 5655 rows, 3059 columns, and 16542 nonzeros.
Reduced MIP has 2658 binaries, 0 generals, 0 SOSs, and 0 indicators.
Presolve time = 0.02 sec. (9.17 ticks)
Probing time = 0.02 sec. (4.01 ticks)
Clique table members: 1979.
MIP emphasis: balance optimality and feasibility.
MIP search method: dynamic search.
Parallel mode: deterministic, using up to 8 threads.
Root relaxation solution time = 0.02 sec. (29.54 ticks)

        Nodes                                         Cuts/
   Node  Left     Objective  IInf  Best Integer    Best Bound    ItCnt     Gap

*     0+    0                           60.0000       18.0000            70.00%
      0     0       18.0000    35       60.0000       18.0000      346   70.00%
      0     0       18.0037    23       60.0000      Cuts: 67      693   69.99%
*     0+    0                           31.0000       18.0037            41.92%
      0     0       25.0013    30       31.0000     Cuts: 132      769   19.35%
      0     0       27.0000    26       31.0000      Cuts: 70      805   12.90%
      0     0       27.0000    20       31.0000      Cuts: 32      833   12.90%
*     0+    0                           29.0000       27.0000             6.90%
      0     0       27.0000    33       29.0000   MIRcuts: 21      857    6.90%
      0     0       27.0000     8       29.0000   MIRcuts: 19      860    6.90%
      0     0       27.0000    11       29.0000    MIRcuts: 3      865    6.90%
*     0+    0                           28.0000       27.0000             3.57%
*     0+    0                           27.0000       27.0000             0.00%
      0     0        cutoff             27.0000       27.0000      865    0.00%
Elapsed time = 0.95 sec. (405.61 ticks, tree = 0.01 MB, solutions = 5)

Clique cuts applied:  76
Implied bound cuts applied:  3
Mixed integer rounding cuts applied:  37

Root node processing (before b&c):
  Real time             =    0.95 sec. (405.90 ticks)
Parallel b&c, 8 threads:
  Real time             =    0.00 sec. (0.00 ticks)
  Sync time (average)   =    0.00 sec.
  Wait time (average)   =    0.00 sec.
                          ------------
Total (root+branch&cut) =    0.95 sec. (405.90 ticks)
